! MD BLYP D3 def2-SVP

%md
  timestep 0.5_fs # This is a comment
  initvel 300_K
  thermostat berendsen 300_K timecon 10.0_fs
  dump position stride 1 filename "H2O_trajectory.xyz"
  run 200
end

* xyz 0 1
O -4.54021 0.78439 0.09307
H -3.64059 0.38224 -0.01432
H -4.63463 1.39665 -0.67880
*
